(set-info :smt-lib-version 2.6)
(set-logic QF_UFLRA)
(set-info :source |
MathSat group

|)
(set-info :category "random")
(set-info :status sat)
(declare-fun x0 () Real)
(declare-fun x1 () Real)
(declare-fun x2 () Real)
(declare-fun x3 () Real)
(declare-fun x4 () Real)
(declare-fun x5 () Real)
(declare-fun x6 () Real)
(declare-fun x7 () Real)
(declare-fun x8 () Real)
(declare-fun x9 () Real)
(declare-fun x10 () Real)
(declare-fun x11 () Real)
(declare-fun x12 () Real)
(declare-fun x13 () Real)
(declare-fun x14 () Real)
(declare-fun x15 () Real)
(declare-fun x16 () Real)
(declare-fun x17 () Real)
(declare-fun x18 () Real)
(declare-fun x19 () Real)
(declare-fun x20 () Real)
(declare-fun x21 () Real)
(declare-fun x22 () Real)
(declare-fun x23 () Real)
(declare-fun x24 () Real)
(declare-fun x25 () Real)
(declare-fun x26 () Real)
(declare-fun x27 () Real)
(declare-fun x28 () Real)
(declare-fun x29 () Real)
(declare-fun x30 () Real)
(declare-fun x31 () Real)
(declare-fun x32 () Real)
(declare-fun x33 () Real)
(declare-fun x34 () Real)
(declare-fun x35 () Real)
(declare-fun x36 () Real)
(declare-fun x37 () Real)
(declare-fun x38 () Real)
(declare-fun x39 () Real)
(declare-fun x40 () Real)
(declare-fun x41 () Real)
(declare-fun x42 () Real)
(declare-fun x43 () Real)
(declare-fun x44 () Real)
(declare-fun x45 () Real)
(declare-fun x46 () Real)
(declare-fun x47 () Real)
(declare-fun x48 () Real)
(declare-fun x49 () Real)
(declare-fun f0_1 (Real) Real)
(declare-fun f0_2 (Real Real) Real)
(declare-fun f0_3 (Real Real Real) Real)
(declare-fun f0_4 (Real Real Real Real) Real)
(declare-fun P0 () Bool)
(declare-fun P1 () Bool)
(declare-fun P2 () Bool)
(declare-fun P3 () Bool)
(declare-fun P4 () Bool)
(declare-fun P5 () Bool)
(declare-fun P6 () Bool)
(declare-fun P7 () Bool)
(declare-fun P8 () Bool)
(declare-fun P9 () Bool)
(declare-fun P10 () Bool)
(declare-fun P11 () Bool)
(declare-fun P12 () Bool)
(declare-fun P13 () Bool)
(declare-fun P14 () Bool)
(declare-fun P15 () Bool)
(declare-fun P16 () Bool)
(declare-fun P17 () Bool)
(declare-fun P18 () Bool)
(declare-fun P19 () Bool)
(declare-fun P20 () Bool)
(declare-fun P21 () Bool)
(declare-fun P22 () Bool)
(declare-fun P23 () Bool)
(declare-fun P24 () Bool)
(declare-fun P25 () Bool)
(declare-fun P26 () Bool)
(declare-fun P27 () Bool)
(declare-fun P28 () Bool)
(declare-fun P29 () Bool)
(declare-fun P30 () Bool)
(declare-fun P31 () Bool)
(declare-fun P32 () Bool)
(declare-fun P33 () Bool)
(declare-fun P34 () Bool)
(declare-fun P35 () Bool)
(declare-fun P36 () Bool)
(declare-fun P37 () Bool)
(declare-fun P38 () Bool)
(declare-fun P39 () Bool)
(declare-fun P40 () Bool)
(declare-fun P41 () Bool)
(declare-fun P42 () Bool)
(declare-fun P43 () Bool)
(declare-fun P44 () Bool)
(declare-fun P45 () Bool)
(declare-fun P46 () Bool)
(declare-fun P47 () Bool)
(declare-fun P48 () Bool)
(declare-fun P49 () Bool)
(assert (let ((?v_71 (* 3 x34)) (?v_128 (distinct (+ (- (* 8 x14) (* 20 x47)) (* 14 x15)) 26)) (?v_221 (= (+ (- (* 21 x0) (* 23 x26)) (* 21 x20)) 0)) (?v_79 (distinct (- (- (* 5 x46) (* 27 x37)) (* 14 x20)) 11)) (?v_3 (* 20 x11)) (?v_31 (<= (- (+ (* 18 x17) (* 21 x14)) (* 25 x4)) 3)) (?v_36 (distinct (- (- (* 27 x47) (* 4 x3)) (* 18 x40)) 2)) (?v_20 (* 4 x32)) (?v_129 (distinct (- (+ (* 22 x49) (* 23 x15)) (* 22 x40)) 13)) (?v_188 (<= (- (- (* 21 x40) (* 8 x43)) (* 17 x37)) 3)) (?v_65 (< (- (+ (* 21 x3) (* 9 x39)) (* 10 x16)) 24)) (?v_184 (distinct (- (+ (* 18 x3) (* 17 x9)) (* 24 x3)) 23)) (?v_56 (= x34 (f0_2 x46 x49))) (?v_89 (distinct x48 x46)) (?v_22 (distinct x17 x38)) (?v_52 (= (f0_2 x29 x35) x10)) (?v_61 (distinct x6 (f0_2 x25 x13))) (?v_117 (= x44 (f0_1 x31))) (?v_112 (distinct (f0_1 x24) x39)) (?v_165 (= x44 x0)) (?v_148 (distinct x49 x31)) (?v_16 (f0_1 x42))) (let ((?v_169 (distinct ?v_16 x12)) (?v_76 (distinct x35 (f0_2 x26 x31))) (?v_38 (f0_1 x39))) (let ((?v_190 (= ?v_38 x45)) (?v_63 (= (f0_2 x39 x33) (f0_2 x13 x6))) (?v_4 (= (f0_1 x36) x41)) (?v_121 (= (f0_2 x1 x31) (f0_1 x5))) (?v_93 (distinct (f0_1 x22) (f0_1 x14))) (?v_95 (= x27 (f0_2 x33 x44))) (?v_14 (distinct (f0_1 x4) (f0_1 x23))) (?v_113 (distinct (f0_1 x48) x44)) (?v_138 (distinct (f0_2 x20 x39) (f0_1 x32))) (?v_174 (distinct (f0_2 x26 x16) x25)) (?v_106 (= (f0_2 x7 x30) x33)) (?v_242 (= (f0_2 x18 x46) (f0_1 x20))) (?v_27 (f0_1 x45))) (let ((?v_73 (distinct ?v_27 ?v_16)) (?v_11 (distinct x28 (f0_2 x22 x37))) (?v_48 (f0_1 x13))) (let ((?v_24 (= ?v_48 x48)) (?v_107 (= x4 ?v_38)) (?v_25 (distinct (f0_2 x25 x15) x46)) (?v_7 (= x47 x37)) (?v_102 (distinct (f0_2 x25 x17) (f0_1 x10))) (?v_15 (distinct (f0_1 x26) x39)) (?v_21 (distinct (f0_2 x20 x18) x9)) (?v_110 (distinct x39 (f0_1 x25))) (?v_72 (distinct (f0_1 x3) (f0_1 x47))) (?v_91 (= x36 ?v_38)) (?v_153 (distinct (f0_1 x40) x16)) (?v_111 (= ?v_48 (f0_1 x9))) (?v_231 (= (f0_1 x2) (f0_2 x1 x23))) (?v_8 (= x40 x23)) (?v_149 (= x36 ?v_16)) (?v_182 (= (f0_1 x16) (f0_2 x42 x44))) (?v_142 (= (f0_2 x44 x13) x35)) (?v_143 (distinct x20 ?v_16)) (?v_28 (f0_1 x46))) (let ((?v_98 (= (f0_2 x32 x46) ?v_28)) (?v_137 (= x47 (f0_1 x15))) (?v_9 (distinct x0 x34)) (?v_133 (= ?v_27 (f0_2 x6 x33))) (?v_92 (distinct (f0_1 x8) x44)) (?v_13 (= (f0_1 x27) (f0_2 x36 x4))) (?v_115 (= x19 ?v_28))) (let ((?v_197 (not ?v_133)) (?v_17 (not ?v_92)) (?v_70 (not P11)) (?v_0 (not P5)) (?v_57 (not P12)) (?v_12 (not ?v_221)) (?v_64 (not P40)) (?v_206 (not ?v_61)) (?v_186 (not ?v_22)) (?v_204 (not ?v_143)) (?v_214 (not P4)) (?v_247 (not ?v_65)) (?v_46 (not P26)) (?v_234 (not P42)) (?v_60 (not ?v_93)) (?v_180 (not ?v_8)) (?v_120 (not P45)) (?v_125 (not P33)) (?v_229 (not P19)) (?v_18 (not ?v_52)) (?v_209 (not ?v_9)) (?v_83 (not ?v_165)) (?v_161 (not ?v_31)) (?v_193 (not ?v_153)) (?v_252 (not P21)) (?v_183 (not ?v_138)) (?v_53 (not ?v_182)) (?v_49 (not ?v_169)) (?v_237 (not ?v_25)) (?v_217 (not ?v_137)) (?v_41 (not ?v_14)) (?v_170 (not P34)) (?v_131 (not ?v_21)) (?v_35 (not P16)) (?v_82 (not ?v_36)) (?v_166 (not ?v_242)) (?v_141 (not ?v_73)) (?v_37 (not ?v_115)) (?v_168 (not P30)) (?v_33 (not P49)) (?v_44 (not P17)) (?v_32 (not P20)) (?v_147 (not P29)) (?v_66 (not P36)) (?v_62 (not ?v_117)) (?v_43 (not ?v_107)) (?v_150 (not ?v_4)) (?v_51 (not P38)) (?v_109 (not ?v_111)) (?v_202 (not P44)) (?v_119 (not ?v_112)) (?v_97 (not P35)) (?v_81 (not ?v_184)) (?v_134 (not ?v_63)) (?v_114 (not ?v_15)) (?v_78 (not ?v_148)) (?v_103 (not ?v_56)) (?v_84 (not ?v_188)) (?v_213 (not ?v_72)) (?v_243 (not ?v_13)) (?v_187 (not ?v_76)) (?v_189 (not P46)) (?v_152 (not ?v_79)) (?v_191 (not ?v_113)) (?v_94 (not ?v_174)) (?v_105 (not ?v_89)) (?v_155 (not P39)) (?v_160 (not P9)) (?v_145 (not ?v_7)) (?v_222 (not P25)) (?v_154 (not P7)) (?v_135 (not ?v_98)) (?v_151 (not P23)) (?v_104 (not ?v_102)) (?v_219 (not ?v_106)) (?v_192 (not ?v_110)) (?v_254 (not P3)) (?v_173 (not P1)) (?v_140 (not P8)) (?v_130 (not P13)) (?v_223 (not P6)) (?v_179 (not P47)) (?v_176 (not ?v_231)) (?v_158 (not P24)) (?v_144 (not ?v_128)) (?v_225 (not P43)) (?v_240 (not ?v_142)) (?v_162 (not ?v_95)) (?v_211 (not ?v_24)) (?v_195 (not ?v_149)) (?v_159 (not P15)) (?v_199 (not P2)) (?v_207 (not P0)) (?v_163 (not P48)) (?v_171 (not P28)) (?v_232 (not P18)) (?v_200 (not P14)) (?v_194 (not ?v_190))) (let ((?v_244 (or ?v_140 ?v_176)) (?v_220 (not P37)) (?v_248 (not P41)) (?v_235 (not ?v_129)) (?v_241 (not P10)) (?v_238 (not ?v_121)) (?v_250 (not P32)) (?v_251 (not P31)) (?v_253 (not ?v_11)) (?v_58 (< (+ x2 x22 (* 17 x44)) 0))) (let ((?v_96 (not ?v_58)) (?v_6 (<= (- (- (* 10 x21) 0) (* 15 x12)) 21))) (let ((?v_215 (not ?v_6)) (?v_54 (<= (- (- 0 x4) (* 16 x1)) 25))) (let ((?v_108 (not ?v_54)) (?v_86 (< (- (* 3 x48) x25) 6)) (?v_55 (= (- (+ (* 10 x15) x20) (* 15 x6)) 11))) (let ((?v_164 (not ?v_55)) (?v_208 (not ?v_86)) (?v_178 (< (- (* 27 x31) (* 25 x21)) 28))) (let ((?v_203 (not ?v_178)) (?v_68 (< (- (- (* 26 x22) (* 27 x30)) (* 19 x36)) (- 8))) (?v_85 (<= (- (- (* (- 20) x5) (* 19 x32)) (* 13 x23)) 17)) (?v_30 (< (- (- x3 (* 21 x39)) (* 22 x34)) (- 14)))) (let ((?v_50 (not ?v_30)) (?v_2 (distinct (- (- (* (- 7) x13) (* 17 x21)) (* 24 x28)) 4))) (let ((?v_132 (not ?v_2)) (?v_26 (distinct (+ (- (* (- 21) x21) (* 5 x31)) ?v_3) (- 23))) (?v_100 (distinct (- (+ (* (- 10) x18) (* 5 x27)) (* 19 x48)) 0))) (let ((?v_1 (not ?v_100)) (?v_5 (distinct (+ (- (* 13 x7) 0) (* 19 x49)) (- 6))) (?v_29 (< (- (+ (* (- 16) x27) (* 27 x28)) (* 12 x34)) (- 15)))) (let ((?v_40 (not ?v_29)) (?v_34 (< (- (+ (* (- 12) x25) (* 27 x2)) x11) 29))) (let ((?v_116 (not ?v_34)) (?v_10 (< (- (+ (* (- 6) x39) ?v_20) (* 25 x14)) 28)) (?v_42 (< (- (- (* (- 14) x41) (* 2 x21)) ?v_3) (- 11)))) (let ((?v_47 (not ?v_42)) (?v_99 (< (- (- (* 2 x48) (* 2 x1)) (* 7 x38)) (- 2)))) (let ((?v_45 (not ?v_99)) (?v_19 (< (+ (- (* 9 x15) (* 20 x15)) (* 20 x21)) (- 6))) (?v_156 (<= (+ (- (* (- 13) x1) (* 25 x36)) (* 19 x9)) 19))) (let ((?v_77 (not ?v_156)) (?v_23 (= (+ (- 0 (* 9 x46)) (* 25 x32)) (- 20))) (?v_226 (= (+ (- 0 (* 23 x18)) (* 9 x10)) (- 27)))) (let ((?v_90 (not ?v_226)) (?v_127 (<= (+ (* 18 x11) ?v_20 (* 20 x34)) (- 8)))) (let ((?v_69 (not ?v_127)) (?v_87 (< (- (- 0 ?v_71) x23) (- 15)))) (let ((?v_39 (not ?v_87)) (?v_80 (= (+ (- (* 20 x22) (* 10 x19)) (* 3 x45)) (- 8)))) (let ((?v_67 (not ?v_80)) (?v_122 (<= (+ (* (- 5) x22) x14 (* 13 x24)) 7))) (let ((?v_157 (not ?v_122)) (?v_212 (not ?v_5)) (?v_88 (<= (+ (* (- 27) x35) (* 27 x7) (* 12 x23)) (- 21))) (?v_74 (distinct (+ (* (- 12) x36) (* 22 x30) (* 26 x13)) 18)) (?v_126 (< (+ (- (* (- 27) x29) (* 10 x37)) (* 25 x31)) 14))) (let ((?v_59 (not ?v_126)) (?v_196 (= (- (- (* (- 23) x19) (* 21 x8)) (* 19 x11)) 29)) (?v_216 (< (- (+ (* (- 23) x45) (* 14 x48)) (* 13 x18)) (- 16))) (?v_75 (<= (- (+ (* (- 20) x13) (* 23 x38)) (* 5 x15)) 11)) (?v_175 (= (+ (* 4 x36) (* 25 x35) (* 4 x26)) (- 25)))) (let ((?v_201 (not ?v_175)) (?v_101 (< (- (+ (* (- 16) x18) (* 8 x39)) (* 19 x40)) 1)) (?v_205 (< (- (+ (* (- 21) x48) (* 16 x45)) ?v_71) 15))) (let ((?v_136 (not ?v_205)) (?v_146 (not ?v_75)) (?v_227 (not ?v_10)) (?v_124 (not ?v_88)) (?v_239 (not ?v_74)) (?v_118 (not ?v_101)) (?v_139 (not ?v_26)) (?v_123 (<= (+ (- (* (- 9) x42) (* 25 x40)) (* 14 x42)) 19))) (let ((?v_198 (not ?v_123)) (?v_177 (distinct (+ (* (- 8) x37) (* 3 x6) (* 18 x2)) 18))) (let ((?v_181 (not ?v_177)) (?v_167 (<= (- (- (* (- 25) x19) (* 16 x8)) (* 9 x27)) 26))) (let ((?v_172 (not ?v_167)) (?v_246 (<= (+ (- (* 4 x29) (* 16 x19)) (* 5 x43)) (- 13)))) (let ((?v_255 (not ?v_246)) (?v_230 (not ?v_68)) (?v_233 (< (+ (* 6 x41) (* 14 x12) (* 14 x4)) (- 22)))) (let ((?v_210 (not ?v_233)) (?v_185 (not ?v_23)) (?v_249 (distinct (+ (- (* 7 x5) (* 8 x25)) (* 24 x9)) (- 24)))) (let ((?v_245 (not ?v_249)) (?v_218 (not ?v_19)) (?v_224 (not ?v_85)) (?v_236 (not ?v_216)) (?v_228 (not ?v_196))) (and (and (and (and (and (and (and (and (and (and (and (and (and (and (and (and (and (and (and (and (and (and (and (and (and (and (and (and (and (and (and (and (and (and (and (and (and (and (and (and (and (and (and (and (and (and (and (and (and (and (and (and (and (and (and (and (and (and (and (and (and (and (and (and (and (and (and (and (and (and (and (and (and (and (and (and (and (and (and (and (and (and (and (and (and (and (and (and (and (and (and (and (and (and (and (and (and (and (and (and (and (and (and (and (and (and (and (and (and (and (and (and (and (and (and (and (and (and (and (and (and (and (and (and (and (and (and (and (and (and (and (and (and (and (and (and (and (and (and (and (and (and (and (and (and (and (and (and (and (and (and (and (and (and (and (and (and (and (and (and (and (and (and (and (and (and (and (and (and (and (and (and (and (and (and (and (and (and (and (and (and (and (and (and (and (and (and (and (and (and (and (and (and (and (and (and (and (and (and (and (and (and (and (and (and (and (and (and (and (and (and (and (and (and (and (and (and (and (and (and (and (and (and (and (and (and (and (and (and (and (and (and (and (and (and (and (and (and (and (and (and (and (and (and (and (and (and (and (and (and (and (and (and (and (and (and (and (and (and (and (and (and (and (and (and (and (and (and (and (and (and (and (and (and (and (and (and (and (and (and (and (and (and (and (and (and (and (and (and (and (and (and (and (and (and (and (and (and (and (and (and (and (and (and (and (and (and (and (and (and (and (and (and (and (and (and (and (and (and (and (and (and (and (and (and (and (and (and (and (and (and (and (and (and (and (and (and (and (and (and (and (and (and (and (and (and (and (and (and (and (and (and (and (and (and (and (and (and (and (and (and (and (and (and (and (and (and (and (and (and (and (and (and (and (and (and (and (and (and (and (and (and (and (and (and (and (and (and (and (and (and (and (and (and (and (and (and (and (and (and (and (and (and (and (and (and (and (and (and (and (and (and (and (and (and (and (and (and (and (and (and (and (and (and (and (and (and (and (and (and (and (and (and (and (and (and (and (and (and (and (and (and (and (and (and (and (and (and (and (and (and (and (and (and (and (and (and (and (and (and (and (and (and (and (and (and (and (and (and (and (and (and (and (and (and (and (and (and (and (and (and (and (and (and (and (and (and (and (and (and (and (and (and (and (and (and (and (and (and (and (and (and (and (and (and (and (and (and (and (and (and (and (and (and (and (and (and (and (and (and (and (and (and (and (and (and (and (and (and (and (and (and (and (and (and (and (and (and (and (and (and (and (and (and (and (and (and (and (and (and (and (and (and (and (and (and (and (and (and (and (and (and (and (and (and (and (and (and (and (and (and (and (and (and (and (and (and (and (and (and (and (and (and (and (and (and (and (and (and (and (and (and (and (and (and (and (and (and (and (or (or P47 ?v_197) P42) (or (or ?v_17 ?v_68) ?v_85)) (or (or ?v_70 ?v_0) ?v_96)) (or (or ?v_50 P16) ?v_21)) (or (or ?v_79 P7) ?v_57)) (or (or ?v_15 ?v_0) ?v_132)) (or (or ?v_4 ?v_26) ?v_98)) (or (or ?v_0 ?v_1) ?v_12)) (or (or ?v_64 ?v_1) ?v_13)) (or (or P26 ?v_5) ?v_215)) (or (or ?v_206 ?v_11) ?v_186)) (or (or ?v_204 ?v_40) ?v_214)) (or (or ?v_116 ?v_2) ?v_10)) (or (or ?v_47 ?v_8) P46)) (or (or ?v_4 P21) ?v_45)) (or (or ?v_7 ?v_9) ?v_247)) (or (or ?v_14 ?v_5) ?v_108)) (or (or ?v_6 P27) ?v_7)) (or (or ?v_91 ?v_19) ?v_46)) (or (or ?v_110 ?v_234) ?v_60)) (or (or ?v_180 ?v_120) ?v_125)) (or (or ?v_229 ?v_18) ?v_209)) (or (or ?v_83 ?v_10) ?v_77)) (or (or P1 ?v_161) ?v_11)) (or (or ?v_193 ?v_252) ?v_12)) (or (or ?v_13 ?v_14) ?v_183)) (or (or ?v_53 P13) ?v_15)) (or (or ?v_23 ?v_14) ?v_49)) (or (or ?v_17 ?v_128) ?v_76)) (or (or ?v_129 ?v_237) ?v_18)) (or (or ?v_90 ?v_86) ?v_217)) (or (or ?v_41 ?v_24) ?v_170)) (or (or ?v_19 ?v_69) ?v_131)) (or (or ?v_22 ?v_23) P44)) (or (or ?v_72 ?v_35) ?v_24)) (or (or ?v_39 ?v_5) ?v_25)) (or (or ?v_82 ?v_166) P37)) (or (or P32 ?v_26) ?v_141)) (or (or ?v_37 P44) ?v_168)) (or (or ?v_67 ?v_95) P2)) (or (or P20 ?v_33) ?v_26)) (or (or P41 ?v_44) ?v_29)) (or (or ?v_32 ?v_147) ?v_30)) (or (or ?v_31 ?v_157) ?v_32)) (or (or ?v_33 ?v_212) ?v_34)) (or (or ?v_0 ?v_35) ?v_66)) (or (or ?v_36 ?v_37) ?v_62)) (or (or ?v_43 ?v_88) ?v_39)) (or (or ?v_74 ?v_7) P43)) (or (or ?v_40 ?v_121) ?v_41)) (or (or ?v_11 ?v_13) ?v_56)) (or (or ?v_150 ?v_59) P14)) (or (or ?v_42 ?v_43) ?v_31)) (or (or ?v_44 ?v_45) ?v_46)) (or (or ?v_51 P37) ?v_196)) (or (or ?v_47 ?v_109) ?v_63)) (or (or ?v_4 ?v_216) ?v_49)) (or (or ?v_50 ?v_42) ?v_164)) (or (or P2 ?v_202) ?v_51)) (or (or ?v_43 ?v_75) ?v_24)) (or (or ?v_52 ?v_53) ?v_8)) (or (or ?v_89 ?v_119) ?v_54)) (or (or ?v_55 ?v_97) P42)) (or (or ?v_56 P43) P26)) (or (or ?v_43 ?v_55) ?v_57)) (or (or ?v_81 ?v_58) ?v_59)) (or (or P37 ?v_60) P19)) (or (or ?v_61 ?v_59) ?v_2)) (or (or ?v_62 ?v_134) P15)) (or (or ?v_62 ?v_64) P45)) (or (or ?v_65 ?v_60) ?v_114)) (or (or P39 ?v_30) ?v_201)) (or (or ?v_66 ?v_67) ?v_35)) (or (or ?v_9 P43) P32)) (or (or ?v_101 ?v_68) ?v_69)) (or (or ?v_70 ?v_136) ?v_72)) (or (or ?v_78 ?v_103) ?v_73)) (or (or ?v_74 ?v_12) ?v_84)) (or (or ?v_37 P48) ?v_213)) (or (or P32 ?v_106) ?v_243)) (or (or ?v_42 ?v_146) ?v_187)) (or (or ?v_189 P42) ?v_46)) (or (or P48 P15) P18)) (or (or ?v_77 ?v_227) ?v_43)) (or (or ?v_36 ?v_0) ?v_14)) (or (or ?v_78 ?v_152) ?v_80)) (or (or ?v_102 ?v_42) ?v_18)) (or (or ?v_81 ?v_82) ?v_7)) (or (or ?v_83 P49) P22)) (or (or ?v_191 ?v_84) ?v_85)) (or (or ?v_2 P31) ?v_208)) (or (or ?v_87 ?v_41) P44)) (or (or ?v_94 P38) P13)) (or (or ?v_32 ?v_14) ?v_19)) (or (or P11 ?v_124) P47)) (or (or ?v_105 ?v_31) P38)) (or (or ?v_90 ?v_155) ?v_160)) (or (or ?v_145 ?v_222) ?v_239)) (or (or ?v_73 (not ?v_91)) ?v_92)) (or (or ?v_11 ?v_93) ?v_94)) (or (or ?v_9 P44) P33)) (or (or ?v_95 ?v_94) ?v_66)) (or (or ?v_43 P11) ?v_154)) (or (or ?v_96 ?v_65) ?v_97)) (or (or ?v_98 P6) P4)) (or (or ?v_99 ?v_135) ?v_93)) (or (or ?v_100 ?v_87) ?v_151)) (or (or P17 ?v_118) ?v_84)) (or (or ?v_104 ?v_103) P2)) (or (or ?v_79 ?v_104) ?v_82)) (or (or ?v_105 ?v_1) ?v_219)) (or (or P33 ?v_107) ?v_139)) (or (or ?v_104 ?v_46) ?v_142)) (or (or ?v_108 ?v_109) ?v_192)) (or (or ?v_111 ?v_112) ?v_254)) (or (or ?v_24 ?v_173) ?v_37)) (or (or ?v_101 P47) P34)) (or (or ?v_17 ?v_113) P21)) (or (or ?v_114 ?v_40) ?v_115)) (or (or ?v_26 ?v_116) ?v_93)) (or (or ?v_116 P14) ?v_140)) (or (or ?v_117 P21) ?v_29)) (or (or ?v_118 ?v_130) ?v_223)) (or (or ?v_119 ?v_179) P37)) (or (or ?v_120 ?v_8) ?v_176)) (or (or P17 ?v_121) P13)) (or (or ?v_104 ?v_50) ?v_122)) (or (or ?v_158 P47) ?v_198)) (or (or ?v_123 ?v_86) P21)) (or (or P37 ?v_114) ?v_90)) (or (or ?v_73 ?v_31) ?v_96)) (or (or P12 P33) P28)) (or (or P24 ?v_2) ?v_105)) (or (or ?v_124 ?v_86) ?v_125)) (or (or ?v_126 ?v_127) ?v_190)) (or (or ?v_144 P41) ?v_52)) (or (or ?v_129 ?v_130) ?v_60)) (or (or ?v_131 P33) ?v_64)) (or (or ?v_125 ?v_132) ?v_79)) (or (or ?v_133 ?v_134) ?v_84)) (or (or ?v_132 ?v_135) ?v_126)) (or (or ?v_24 ?v_55) ?v_75)) (or (or ?v_53 ?v_203) ?v_136)) (or (or P10 ?v_137) ?v_132)) (or (or P16 ?v_138) ?v_139)) (or (or P41 ?v_99) P16)) (or (or ?v_140 ?v_30) ?v_141)) (or (or ?v_62 P19) ?v_225)) (or (or ?v_92 ?v_149) ?v_136)) (or (or ?v_73 P47) P11)) (or (or P47 ?v_181) ?v_240)) (or (or ?v_172 ?v_81) ?v_143)) (or (or ?v_137 ?v_144) ?v_41)) (or (or ?v_64 ?v_162) ?v_145)) (or (or ?v_143 ?v_34) ?v_110)) (or (or ?v_146 ?v_147) ?v_211)) (or (or P45 ?v_255) ?v_6)) (or (or ?v_106 P5) P15)) (or (or P14 P40) ?v_140)) (or (or ?v_49 P38) ?v_148)) (or (or P27 ?v_195) ?v_230)) (or (or ?v_84 ?v_150) ?v_151)) (or (or ?v_73 ?v_152) P11)) (or (or ?v_57 ?v_153) ?v_85)) (or (or ?v_117 ?v_32) ?v_154)) (or (or ?v_155 ?v_148) ?v_25)) (or (or ?v_85 ?v_156) ?v_70)) (or (or ?v_210 ?v_157) ?v_185)) (or (or ?v_159 ?v_134) P38)) (or (or ?v_158 ?v_107) ?v_159)) (or (or ?v_113 ?v_156) ?v_69)) (or (or ?v_160 ?v_199) ?v_86)) (or (or ?v_19 ?v_152) ?v_161)) (or (or ?v_47 ?v_12) ?v_31)) (or (or ?v_10 ?v_119) ?v_153)) (or (or ?v_54 ?v_122) ?v_207)) (or (or ?v_46 P20) ?v_66)) (or (or ?v_162 ?v_26) ?v_100)) (or (or ?v_163 ?v_89) ?v_2)) (or (or ?v_163 ?v_19) ?v_164)) (or (or P3 ?v_103) ?v_15)) (or (or ?v_5 ?v_54) ?v_165)) (or (or ?v_158 ?v_166) P18)) (or (or ?v_110 ?v_167) ?v_168)) (or (or ?v_12 ?v_164) ?v_4)) (or (or ?v_52 ?v_40) ?v_66)) (or (or ?v_169 ?v_36) P14)) (or (or ?v_171 P3) ?v_132)) (or (or ?v_42 ?v_138) P8)) (or (or ?v_31 P49) ?v_62)) (or (or ?v_170 P41) P33)) (or (or ?v_171 ?v_138) ?v_95)) (or (or ?v_13 ?v_144) ?v_58)) (or (or P30 P39) ?v_172)) (or (or ?v_40 ?v_135) ?v_99)) (or (or ?v_9 ?v_77) ?v_173)) (or (or ?v_5 ?v_122) ?v_174)) (or (or ?v_147 ?v_9) ?v_105)) (or (or P26 ?v_15) ?v_175)) (or (or ?v_176 ?v_21) ?v_129)) (or (or P12 ?v_94) ?v_177)) (or (or ?v_178 ?v_22) ?v_179)) (or (or ?v_85 ?v_180) ?v_148)) (or (or ?v_66 ?v_29) ?v_139)) (or (or ?v_130 P6) P29)) (or (or P37 ?v_12) ?v_120)) (or (or ?v_68 ?v_45) ?v_139)) (or (or ?v_136 ?v_68) ?v_69)) (or (or ?v_62 P28) ?v_59)) (or (or P34 P6) ?v_155)) (or (or ?v_232 ?v_181) ?v_68)) (or (or ?v_200 ?v_182) P23)) (or (or P8 ?v_9) ?v_183)) (or (or ?v_45 ?v_90) P20)) (or (or ?v_128 ?v_184) P37)) (or (or P8 ?v_133) ?v_185)) (or (or ?v_58 P43) ?v_186)) (or (or ?v_168 ?v_54) ?v_62)) (or (or ?v_152 ?v_187) ?v_168)) (or (or ?v_188 ?v_189) ?v_140)) (or (or P30 ?v_1) ?v_93)) (or (or P5 ?v_129) ?v_141)) (or (or ?v_122 ?v_161) ?v_189)) (or (or ?v_120 ?v_23) ?v_187)) (or (or ?v_81 P20) ?v_157)) (or (or ?v_88 ?v_62) ?v_194)) (or (or ?v_72 ?v_191) ?v_192)) (or (or ?v_82 P22) ?v_143)) (or (or ?v_193 ?v_119) P18)) (or (or ?v_69 ?v_194) ?v_131)) (or (or P14 ?v_86) ?v_148)) (or (or ?v_77 P12) ?v_195)) (or (or ?v_196 ?v_122) ?v_131)) (or (or ?v_12 ?v_39) P44)) (or ?v_244 ?v_149)) (or (or P26 ?v_140) ?v_162)) (or (or ?v_97 ?v_173) P42)) (or (or ?v_197 ?v_85) ?v_198)) (or (or ?v_94 ?v_137) ?v_52)) (or (or ?v_199 ?v_160) ?v_200)) (or (or ?v_54 ?v_68) P15)) (or (or ?v_201 ?v_202) ?v_203)) (or (or P24 ?v_17) ?v_147)) (or (or P45 ?v_171) ?v_42)) (or (or ?v_204 ?v_78) ?v_170)) (or (or P30 ?v_190) ?v_173)) (or (or ?v_205 P46) ?v_206)) (or (or ?v_205 ?v_73) P8)) (or (or ?v_68 ?v_96) ?v_140)) (or (or ?v_207 P31) P47)) (or (or ?v_52 P7) ?v_208)) (or (or P1 P5) P24)) (or (or ?v_77 P25) ?v_91)) (or (or ?v_1 P20) ?v_66)) (or (or ?v_165 P43) ?v_163)) (or (or ?v_18 ?v_64) ?v_7)) (or (or P45 ?v_209) ?v_77)) (or (or ?v_127 P15) ?v_78)) (or (or ?v_245 P45) ?v_22)) (or (or ?v_131 ?v_91) ?v_84)) (or (or ?v_203 ?v_44) P3)) (or (or P31 ?v_136) ?v_210)) (or (or ?v_116 ?v_186) P43)) (or (or ?v_4 P41) ?v_211)) (or (or ?v_44 ?v_34) ?v_66)) (or (or ?v_96 ?v_158) ?v_220)) (or (or ?v_152 ?v_142) ?v_118)) (or (or ?v_218 ?v_145) ?v_224)) (or (or ?v_54 ?v_191) ?v_212)) (or (or ?v_19 ?v_186) ?v_176)) (or (or P23 P46) ?v_60)) (or (or ?v_57 P5) ?v_76)) (or (or ?v_18 ?v_79) ?v_173)) (or (or ?v_89 ?v_45) P48)) (or (or ?v_144 ?v_117) ?v_203)) (or (or ?v_50 ?v_6) ?v_115)) (or (or ?v_213 ?v_47) P36)) (or (or ?v_89 ?v_214) ?v_70)) (or (or P21 ?v_41) ?v_111)) (or (or ?v_58 P18) ?v_8)) (or (or ?v_79 ?v_83) ?v_103)) (or (or ?v_7 ?v_130) ?v_215)) (or (or ?v_66 ?v_9) ?v_236)) (or (or ?v_151 ?v_118) ?v_183)) (or (or ?v_135 ?v_130) P28)) (or (or ?v_159 ?v_118) ?v_145)) (or (or ?v_96 ?v_118) P3)) (or (or ?v_146 ?v_75) ?v_217)) (or (or P17 ?v_152) ?v_197)) (or (or ?v_144 ?v_33) ?v_218)) (or (or P12 ?v_219) ?v_51)) (or (or ?v_70 ?v_122) ?v_80)) (or (or ?v_142 ?v_220) ?v_134)) (or (or ?v_51 P47) ?v_75)) (or (or P3 P12) ?v_87)) (or (or ?v_52 ?v_147) ?v_201)) (or (or ?v_103 ?v_6) ?v_54)) (or (or ?v_118 P36) ?v_161)) (or (or ?v_126 ?v_126) ?v_96)) (or (or ?v_157 ?v_228) P30)) (or (or ?v_56 ?v_64) P43)) (or (or ?v_1 ?v_73) ?v_98)) (or (or ?v_109 ?v_132) ?v_75)) (or (or ?v_89 ?v_221) ?v_158)) (or (or ?v_113 P49) P46)) (or (or ?v_60 ?v_110) ?v_92)) (or (or ?v_189 ?v_147) ?v_196)) (or (or ?v_177 ?v_50) ?v_204)) (or (or ?v_0 ?v_222) ?v_151)) (or (or ?v_137 ?v_218) P8)) (or (or ?v_15 P15) P48)) (or (or ?v_204 ?v_215) ?v_211)) (or (or ?v_185 ?v_223) ?v_24)) (or (or ?v_54 ?v_95) ?v_112)) (or (or ?v_176 ?v_45) ?v_224)) (or (or ?v_195 ?v_92) ?v_75)) (or (or ?v_215 ?v_39) ?v_122)) (or (or ?v_170 ?v_225) ?v_187)) (or (or ?v_226 ?v_134) ?v_34)) (or (or ?v_9 ?v_114) ?v_70)) (or (or P21 ?v_152) ?v_90)) (or (or ?v_227 ?v_189) ?v_41)) (or (or ?v_228 P16) ?v_143)) (or (or ?v_229 ?v_23) ?v_51)) (or (or ?v_191 ?v_115) ?v_84)) (or (or ?v_214 P25) P39)) (or (or ?v_50 ?v_227) P7)) (or (or ?v_189 ?v_216) ?v_49)) (or (or ?v_40 ?v_219) ?v_92)) (or (or P15 ?v_73) ?v_194)) (or (or ?v_190 ?v_157) ?v_215)) (or (or ?v_109 ?v_199) ?v_54)) (or (or P43 ?v_127) ?v_175)) (or (or ?v_104 ?v_201) ?v_230)) (or (or ?v_99 ?v_52) P13)) (or (or P44 ?v_22) ?v_126)) (or (or P31 ?v_171) ?v_189)) (or (or ?v_81 P28) ?v_208)) (or (or ?v_129 P30) ?v_187)) (or (or ?v_231 ?v_124) ?v_83)) (or (or ?v_17 ?v_95) ?v_46)) (or (or P23 ?v_168) ?v_66)) (or (or P45 ?v_123) ?v_100)) (or (or ?v_24 ?v_142) ?v_127)) (or (or ?v_104 ?v_197) ?v_110)) (or (or ?v_18 ?v_42) ?v_77)) (or (or ?v_195 ?v_208) ?v_90)) (or (or ?v_165 P7) ?v_23)) (or (or ?v_232 ?v_233) ?v_248)) (or (or ?v_202 ?v_110) ?v_117)) (or (or ?v_121 ?v_220) ?v_187)) (or (or ?v_152 P33) ?v_211)) (or (or ?v_216 ?v_174) ?v_92)) (or (or ?v_30 ?v_94) ?v_143)) (or (or ?v_186 P7) ?v_77)) (or (or ?v_39 ?v_62) P15)) (or (or P0 P23) ?v_137)) (or (or ?v_43 ?v_235) ?v_99)) (or (or ?v_82 ?v_152) ?v_191)) (or (or ?v_45 ?v_39) ?v_100)) (or (or ?v_105 ?v_156) ?v_44)) (or (or ?v_72 ?v_185) P5)) (or (or ?v_171 ?v_73) ?v_152)) (or (or ?v_187 P44) ?v_234)) (or (or P46 ?v_161) ?v_108)) (or (or P13 ?v_84) ?v_5)) (or (or P2 ?v_83) ?v_176)) (or (or ?v_42 ?v_4) ?v_100)) (or (or ?v_31 ?v_146) ?v_66)) (or (or ?v_214 ?v_9) ?v_72)) (or (or ?v_112 ?v_87) ?v_187)) (or (or ?v_111 ?v_147) ?v_235)) (or (or ?v_201 P10) ?v_235)) (or (or ?v_139 P19) ?v_187)) (or (or ?v_176 P45) ?v_76)) (or (or ?v_201 ?v_187) ?v_62)) (or (or ?v_118 P2) P17)) (or (or ?v_236 ?v_182) ?v_159)) (or (or ?v_98 ?v_241) ?v_68)) (or (or ?v_115 ?v_85) ?v_91)) (or (or ?v_94 ?v_115) ?v_173)) (or (or ?v_226 ?v_196) P29)) (or (or ?v_157 ?v_237) ?v_109)) (or (or ?v_209 ?v_78) ?v_199)) (or (or ?v_41 ?v_137) ?v_190)) (or (or ?v_150 ?v_112) ?v_189)) (or (or ?v_120 P18) ?v_139)) (or (or ?v_17 ?v_145) P6)) (or (or P4 ?v_156) ?v_10)) (or (or ?v_177 ?v_88) ?v_141)) (or (or P8 ?v_212) ?v_165)) (or (or ?v_49 ?v_210) ?v_36)) (or (or P9 ?v_17) ?v_216)) (or (or ?v_148 ?v_192) ?v_93)) (or (or ?v_152 P42) ?v_114)) (or (or ?v_171 P19) ?v_116)) (or (or ?v_33 ?v_35) P48)) (or (or ?v_14 ?v_208) ?v_170)) (or (or ?v_25 ?v_213) ?v_84)) (or (or P22 ?v_146) ?v_185)) (or (or P46 ?v_78) P36)) (or (or ?v_190 ?v_206) P5)) (or (or P32 ?v_69) ?v_159)) (or (or ?v_156 ?v_106) ?v_110)) (or (or ?v_133 ?v_177) ?v_11)) (or (or ?v_22 P9) ?v_213)) (or (or ?v_47 P8) ?v_160)) (or (or ?v_102 ?v_45) ?v_41)) (or (or ?v_145 ?v_218) ?v_80)) (or (or ?v_1 ?v_30) ?v_13)) (or (or ?v_94 ?v_123) ?v_148)) (or (or ?v_32 ?v_238) ?v_96)) (or (or ?v_195 ?v_6) ?v_233)) (or (or P45 ?v_191) ?v_117)) (or (or ?v_250 ?v_153) ?v_230)) (or (or ?v_4 P36) ?v_226)) (or (or ?v_75 P8) ?v_85)) (or (or ?v_157 ?v_229) ?v_200)) (or (or ?v_165 P37) ?v_207)) (or (or ?v_222 ?v_7) ?v_201)) (or (or P23 ?v_156) ?v_31)) (or (or P17 ?v_234) ?v_123)) (or (or ?v_0 ?v_203) ?v_68)) (or (or ?v_144 ?v_198) ?v_172)) (or (or ?v_166 ?v_238) ?v_227)) (or (or ?v_130 ?v_206) P7)) (or (or ?v_107 P20) ?v_155)) (or (or ?v_56 ?v_144) ?v_141)) (or (or ?v_162 ?v_239) ?v_144)) (or (or ?v_173 ?v_240) P0)) (or (or ?v_210 ?v_201) ?v_2)) (or (or ?v_169 ?v_220) ?v_12)) (or (or ?v_70 P41) ?v_159)) (or (or ?v_114 ?v_161) ?v_6)) (or (or ?v_13 ?v_140) ?v_181)) (or (or ?v_241 P34) ?v_135)) (or (or ?v_37 ?v_58) ?v_220)) (or (or ?v_242 ?v_10) P2)) (or (or ?v_117 ?v_210) ?v_60)) (or (or P33 ?v_119) ?v_228)) (or (or ?v_78 ?v_139) ?v_251)) (or (or ?v_85 ?v_211) P32)) (or (or ?v_18 ?v_136) ?v_53)) (or (or ?v_141 P39) ?v_133)) (or (or ?v_199 ?v_148) P45)) (or (or ?v_49 ?v_96) ?v_243)) (or (or ?v_59 ?v_99) ?v_104)) (or ?v_244 ?v_31)) (or (or ?v_203 P44) ?v_116)) (or (or ?v_69 ?v_200) ?v_202)) (or (or ?v_167 ?v_169) ?v_191)) (or (or ?v_179 ?v_83) ?v_245)) (or (or ?v_174 ?v_180) P21)) (or (or ?v_195 ?v_225) ?v_132)) (or (or ?v_196 ?v_19) ?v_181)) (or (or ?v_246 ?v_246) ?v_82)) (or (or ?v_191 ?v_247) ?v_66)) (or (or ?v_92 ?v_175) ?v_221)) (or (or ?v_202 ?v_170) P13)) (or (or ?v_131 ?v_240) ?v_60)) (or (or ?v_85 ?v_217) ?v_14)) (or (or ?v_245 ?v_127) P44)) (or (or (not P27) ?v_97) ?v_248)) (or (or ?v_41 ?v_209) ?v_15)) (or (or ?v_180 ?v_83) ?v_212)) (or (or P38 ?v_102) ?v_115)) (or (or ?v_57 ?v_143) P40)) (or (or ?v_26 P7) P37)) (or (or P28 P14) ?v_29)) (or (or ?v_6 ?v_118) ?v_90)) (or (or ?v_91 ?v_190) ?v_2)) (or (or ?v_80 P5) ?v_184)) (or (or ?v_52 ?v_191) ?v_125)) (or (or ?v_14 ?v_12) ?v_132)) (or (or ?v_78 ?v_33) ?v_249)) (or (or ?v_217 ?v_232) P21)) (or (or ?v_89 ?v_111) ?v_200)) (or (or ?v_227 ?v_56) P14)) (or (or P31 P2) ?v_91)) (or (or ?v_146 ?v_73) P0)) (or (or ?v_100 ?v_55) ?v_169)) (or (or ?v_250 P37) P24)) (or (or ?v_131 ?v_169) ?v_253)) (or (or P27 ?v_122) ?v_169)) (or (or P1 ?v_195) ?v_144)) (or (or ?v_73 ?v_251) P33)) (or (or ?v_100 ?v_217) ?v_56)) (or (or ?v_209 ?v_13) ?v_104)) (or (or ?v_114 ?v_89) ?v_169)) (or (or P6 ?v_134) ?v_47)) (or (or ?v_162 ?v_163) ?v_103)) (or (or ?v_169 ?v_200) ?v_75)) (or (or ?v_52 ?v_137) P40)) (or (or ?v_25 ?v_110) ?v_57)) (or (or ?v_98 ?v_217) ?v_216)) (or (or ?v_6 ?v_41) ?v_157)) (or (or ?v_98 ?v_73) ?v_121)) (or (or ?v_210 P15) ?v_107)) (or (or ?v_232 ?v_1) P24)) (or (or ?v_252 P35) ?v_185)) (or (or ?v_61 ?v_79) P42)) (or (or ?v_62 ?v_210) ?v_187)) (or (or ?v_14 ?v_127) ?v_31)) (or (or ?v_230 ?v_236) ?v_159)) (or (or ?v_80 ?v_253) ?v_17)) (or (or ?v_66 ?v_140) ?v_237)) (or (or ?v_59 ?v_24) ?v_21)) (or (or ?v_80 ?v_122) ?v_110)) (or (or P14 P45) ?v_102)) (or (or ?v_248 ?v_153) P32)) (or (or ?v_59 ?v_10) ?v_219)) (or (or P0 ?v_74) ?v_235)) (or (or ?v_166 ?v_130) P37)) (or (or ?v_213 ?v_97) ?v_120)) (or (or P40 ?v_129) ?v_248)) (or (or P4 ?v_69) ?v_113)) (or (or ?v_17 P25) ?v_204)) (or (or ?v_32 ?v_55) P42)) (or (or ?v_169 ?v_56) ?v_139)) (or (or P18 P15) P27)) (or (or ?v_99 ?v_226) ?v_145)) (or (or P44 ?v_82) P19)) (or (or ?v_15 P34) ?v_202)) (or (or P38 ?v_157) ?v_254)) (or (or ?v_237 P24) ?v_90)) (or (or ?v_79 P16) ?v_151)) (or (or P9 ?v_40) ?v_137)) (or (or ?v_178 ?v_93) ?v_12)) (or (or ?v_146 ?v_40) P9)) (or (or ?v_249 ?v_247) ?v_252)) (or (or ?v_37 ?v_73) ?v_153)) (or (or P26 ?v_78) P15)) (or (or ?v_72 ?v_87) P8)) (or (or ?v_223 P17) ?v_195)) (or (or ?v_75 ?v_129) P4)) (or (or ?v_7 ?v_93) P14)) (or (or ?v_224 ?v_66) ?v_116)) (or (or ?v_97 P2) ?v_219)) (or (or ?v_116 ?v_118) ?v_177)) (or (or ?v_219 ?v_111) ?v_172)) (or (or ?v_23 ?v_161) P43)) (or (or ?v_153 ?v_2) ?v_172)) (or (or P10 ?v_253) ?v_34)) (or (or ?v_87 ?v_11) ?v_107)) (or (or ?v_129 ?v_79) ?v_51)) (or (or ?v_194 ?v_75) ?v_175)) (or (or ?v_167 ?v_185) P4)) (or (or P35 ?v_253) ?v_90)) (or (or ?v_47 ?v_41) ?v_79)) (or (or ?v_49 ?v_45) ?v_1)) (or (or ?v_231 ?v_235) ?v_88)) (or (or ?v_177 ?v_105) ?v_141)) (or (or P30 ?v_243) P14)) (or (or ?v_86 ?v_156) ?v_7)) (or (or ?v_143 P3) ?v_140)) (or (or ?v_177 P19) ?v_54)) (or (or ?v_241 ?v_60) ?v_123)) (or (or ?v_147 ?v_143) ?v_86)) (or (or ?v_22 ?v_109) ?v_7)) (or (or ?v_156 P9) ?v_175)) (or (or ?v_22 ?v_234) ?v_160)) (or (or ?v_109 ?v_232) ?v_252)) (or (or ?v_222 ?v_104) ?v_180)) (or (or ?v_130 ?v_201) ?v_73)) (or (or ?v_92 P3) ?v_44)) (or (or ?v_208 ?v_70) ?v_78)) (or (or ?v_25 P13) ?v_162)) (or (or ?v_30 ?v_106) ?v_250)) (or (or ?v_40 ?v_53) ?v_168)) (or (or ?v_161 ?v_1) ?v_104)) (or (or P40 ?v_26) ?v_30)) (or (or ?v_54 ?v_225) ?v_1)) (or (or ?v_165 ?v_210) ?v_50)) (or (or ?v_245 ?v_39) ?v_183)) (or (or ?v_136 ?v_46) ?v_167)) (or (or ?v_238 P11) ?v_117)) (or (or ?v_120 ?v_210) ?v_197)) (or (or ?v_132 ?v_102) ?v_24)) (or (or ?v_109 (not P22)) P41)) (or (or ?v_238 ?v_98) ?v_199)) (or (or ?v_138 ?v_82) ?v_158)) (or (or P24 ?v_103) ?v_195)) (or (or ?v_195 ?v_248) ?v_140)) (or (or ?v_92 P10) ?v_237)) (or (or P38 P20) ?v_209)) (or (or ?v_74 ?v_188) ?v_23)) (or (or ?v_220 P14) ?v_54)) (or (or ?v_115 ?v_150) ?v_62)) (or (or P10 P48) ?v_252)) (or (or ?v_0 ?v_24) ?v_53)) (or (or ?v_127 ?v_36) ?v_255)) (or (or ?v_77 ?v_231) ?v_124)) (or (or ?v_217 P39) ?v_117)) (or (or ?v_126 ?v_176) ?v_159)) (or (or ?v_33 ?v_235) ?v_156)) (or (or ?v_33 ?v_50) ?v_211)) (or (or ?v_133 ?v_43) ?v_190)) (or (or P29 ?v_15) ?v_156)) (or (or ?v_243 P2) ?v_236)) (or (or ?v_84 ?v_202) ?v_133))))))))))))))))))))))))))))))))))))))
(check-sat)
(exit)
